32 26
17 217
4 629
10 472
16 357
20 573
2 883
25 754
15 971
17 648
25 151
1 300
8 656
2 691
17 438
20 721
21 702
23 844
20 738
19 918
5 394
19 962
7 151
7 284
4 39
1 561
14 994
18 880
10 385
5 167
20 43
23 765
25 83
